p cnf 148 279
-1 22 122 -123 -124 -125 -127 -128 -129 -130 -131 -132 -133 -134 -135 -136 -141 -143 -144 -145 -148 0 
-2 3 5 21 43 63 79 82 91 97 98 105 115 123 -122 -124 -125 -127 -128 -129 -130 -131 -132 -133 -134 -135 -136 -141 -143 -144 -145 -148 0 
-3 2 5 21 43 63 79 82 91 97 98 105 115 124 -122 -123 -125 -127 -128 -129 -130 -131 -132 -133 -134 -135 -136 -141 -143 -144 -145 -148 0 
-4 125 -122 -123 -124 -127 -128 -129 -130 -131 -132 -133 -134 -135 -136 -141 -143 -144 -145 -148 0 
-5 2 3 21 43 63 79 82 91 97 98 105 115 126 -137 -138 -139 -142 -146 0 
-6 -7 127 -122 -123 -124 -125 -128 -129 -130 -131 -132 -133 -134 -135 -136 -141 -143 -144 -145 -148 0 
-8 128 -122 -123 -124 -125 -127 -129 -130 -131 -132 -133 -134 -135 -136 -141 -143 -144 -145 -148 0 
-9 31 51 111 129 -122 -123 -124 -125 -127 -128 -130 -131 -132 -133 -134 -135 -136 -141 -143 -144 -145 -148 0 
-10 -11 -12 34 54 -13 113 125 -122 -123 -124 -127 -128 -129 -130 -131 -132 -133 -134 -135 -136 -141 -143 -144 -145 -148 0 
-14 20 38 48 83 -15 16 27 130 -122 -123 -124 -125 -127 -128 -129 -131 -132 -133 -134 -135 -136 -141 -143 -144 -145 -148 0 
-16 15 27 131 -122 -123 -124 -125 -127 -128 -129 -130 -132 -133 -134 -135 -136 -141 -143 -144 -145 -148 0 
-17 45 61 87 104 131 -122 -123 -124 -125 -127 -128 -129 -130 -132 -133 -134 -135 -136 -141 -143 -144 -145 -148 0 
-18 67 125 -122 -123 -124 -127 -128 -129 -130 -131 -132 -133 -134 -135 -136 -141 -143 -144 -145 -148 0 
-19 125 -122 -123 -124 -127 -128 -129 -130 -131 -132 -133 -134 -135 -136 -141 -143 -144 -145 -148 0 
-20 14 38 48 83 132 -122 -123 -124 -125 -127 -128 -129 -130 -131 -133 -134 -135 -136 -141 -143 -144 -145 -148 0 
-21 2 3 5 43 63 79 82 91 97 98 105 115 133 -122 -123 -124 -125 -127 -128 -129 -130 -131 -132 -134 -135 -136 -141 -143 -144 -145 -148 0 
-22 1 134 -122 -123 -124 -125 -127 -128 -129 -130 -131 -132 -133 -135 -136 -141 -143 -144 -145 -148 0 
-23 125 -122 -123 -124 -127 -128 -129 -130 -131 -132 -133 -134 -135 -136 -141 -143 -144 -145 -148 0 
-24 132 -122 -123 -124 -125 -127 -128 -129 -130 -131 -133 -134 -135 -136 -141 -143 -144 -145 -148 0 
-25 -12 34 54 -26 73 125 -122 -123 -124 -127 -128 -129 -130 -131 -132 -133 -134 -135 -136 -141 -143 -144 -145 -148 0 
-19 -27 15 16 -12 34 54 125 -122 -123 -124 -127 -128 -129 -130 -131 -132 -133 -134 -135 -136 -141 -143 -144 -145 -148 0 
-19 -28 -12 34 54 125 -122 -123 -124 -127 -128 -129 -130 -131 -132 -133 -134 -135 -136 -141 -143 -144 -145 -148 0 
-29 -30 32 125 -122 -123 -124 -127 -128 -129 -130 -131 -132 -133 -134 -135 -136 -141 -143 -144 -145 -148 0 
-31 9 51 111 125 -122 -123 -124 -127 -128 -129 -130 -131 -132 -133 -134 -135 -136 -141 -143 -144 -145 -148 0 
-19 -32 30 -12 34 54 125 -122 -123 -124 -127 -128 -129 -130 -131 -132 -133 -134 -135 -136 -141 -143 -144 -145 -148 0 
-19 -12 34 54 125 -122 -123 -124 -127 -128 -129 -130 -131 -132 -133 -134 -135 -136 -141 -143 -144 -145 -148 0 
-33 -34 12 54 -35 135 -122 -123 -124 -125 -127 -128 -129 -130 -131 -132 -133 -134 -136 -141 -143 -144 -145 -148 0 
-5 2 3 21 43 63 79 82 91 97 98 105 115 -12 34 54 125 -122 -123 -124 -127 -128 -129 -130 -131 -132 -133 -134 -135 -136 -141 -143 -144 -145 -148 0 
-36 60 69 85 102 120 136 -122 -123 -124 -125 -127 -128 -129 -130 -131 -132 -133 -134 -135 -141 -143 -144 -145 -148 0 
-5 2 3 21 43 63 79 82 91 97 98 105 115 137 -126 -138 -139 -142 -146 0 
-37 88 138 -126 -137 -139 -142 -146 0 
-18 67 -38 14 20 48 83 -39 139 -126 -137 -138 -142 -146 0 
-40 -27 15 16 125 -122 -123 -124 -127 -128 -129 -130 -131 -132 -133 -134 -135 -136 -141 -143 -144 -145 -148 0 
-41 125 -122 -123 -124 -127 -128 -129 -130 -131 -132 -133 -134 -135 -136 -141 -143 -144 -145 -148 0 
-42 50 86 95 119 135 -122 -123 -124 -125 -127 -128 -129 -130 -131 -132 -133 -134 -136 -141 -143 -144 -145 -148 0 
-43 2 3 5 21 63 79 82 91 97 98 105 115 135 -122 -123 -124 -125 -127 -128 -129 -130 -131 -132 -133 -134 -136 -141 -143 -144 -145 -148 0 
-44 135 -122 -123 -124 -125 -127 -128 -129 -130 -131 -132 -133 -134 -136 -141 -143 -144 -145 -148 0 
-45 17 61 87 104 135 -122 -123 -124 -125 -127 -128 -129 -130 -131 -132 -133 -134 -136 -141 -143 -144 -145 -148 0 
-46 -47 131 -122 -123 -124 -125 -127 -128 -129 -130 -132 -133 -134 -135 -136 -141 -143 -144 -145 -148 0 
-48 14 20 38 83 -12 34 54 125 -122 -123 -124 -127 -128 -129 -130 -131 -132 -133 -134 -135 -136 -141 -143 -144 -145 -148 0 
-19 -30 32 -12 34 54 125 -122 -123 -124 -127 -128 -129 -130 -131 -132 -133 -134 -135 -136 -141 -143 -144 -145 -148 0 
-49 -5 2 3 21 43 63 79 82 91 97 98 105 115 -12 34 54 125 -122 -123 -124 -127 -128 -129 -130 -131 -132 -133 -134 -135 -136 -141 -143 -144 -145 -148 0 
-50 42 86 95 119 140 -122 -123 -124 -125 -127 -128 -129 -130 -131 -132 -133 -134 -135 -136 -141 -143 -144 -145 -148 0 
-51 9 31 111 125 -122 -123 -124 -127 -128 -129 -130 -131 -132 -133 -134 -135 -136 -141 -143 -144 -145 -148 0 
-12 34 54 125 -122 -123 -124 -127 -128 -129 -130 -131 -132 -133 -134 -135 -136 -141 -143 -144 -145 -148 0 
-12 34 54 -10 125 -122 -123 -124 -127 -128 -129 -130 -131 -132 -133 -134 -135 -136 -141 -143 -144 -145 -148 0 
-19 -34 12 54 -35 125 -122 -123 -124 -127 -128 -129 -130 -131 -132 -133 -134 -135 -136 -141 -143 -144 -145 -148 0 
-11 125 -122 -123 -124 -127 -128 -129 -130 -131 -132 -133 -134 -135 -136 -141 -143 -144 -145 -148 0 
-18 67 -12 34 54 125 -122 -123 -124 -127 -128 -129 -130 -131 -132 -133 -134 -135 -136 -141 -143 -144 -145 -148 0 
-52 125 -122 -123 -124 -127 -128 -129 -130 -131 -132 -133 -134 -135 -136 -141 -143 -144 -145 -148 0 
-53 -54 12 34 125 -122 -123 -124 -127 -128 -129 -130 -131 -132 -133 -134 -135 -136 -141 -143 -144 -145 -148 0 
-55 66 90 -19 -12 34 54 125 -122 -123 -124 -127 -128 -129 -130 -131 -132 -133 -134 -135 -136 -141 -143 -144 -145 -148 0 
-12 34 54 -11 141 -122 -123 -124 -125 -127 -128 -129 -130 -131 -132 -133 -134 -135 -136 -143 -144 -145 -148 0 
-56 -12 34 54 125 -122 -123 -124 -127 -128 -129 -130 -131 -132 -133 -134 -135 -136 -141 -143 -144 -145 -148 0 
-57 -51 9 31 111 142 -126 -137 -138 -139 -146 0 
-58 -12 34 54 125 -122 -123 -124 -127 -128 -129 -130 -131 -132 -133 -134 -135 -136 -141 -143 -144 -145 -148 0 
-59 125 -122 -123 -124 -127 -128 -129 -130 -131 -132 -133 -134 -135 -136 -141 -143 -144 -145 -148 0 
-60 36 69 85 102 120 135 -122 -123 -124 -125 -127 -128 -129 -130 -131 -132 -133 -134 -136 -141 -143 -144 -145 -148 0 
-61 17 45 87 104 125 -122 -123 -124 -127 -128 -129 -130 -131 -132 -133 -134 -135 -136 -141 -143 -144 -145 -148 0 
-62 106 125 -122 -123 -124 -127 -128 -129 -130 -131 -132 -133 -134 -135 -136 -141 -143 -144 -145 -148 0 
-63 2 3 5 21 43 79 82 91 97 98 105 115 125 -122 -123 -124 -127 -128 -129 -130 -131 -132 -133 -134 -135 -136 -141 -143 -144 -145 -148 0 
-34 12 54 125 -122 -123 -124 -127 -128 -129 -130 -131 -132 -133 -134 -135 -136 -141 -143 -144 -145 -148 0 
-12 34 54 143 -122 -123 -124 -125 -127 -128 -129 -130 -131 -132 -133 -134 -135 -136 -141 -144 -145 -148 0 
-39 125 -122 -123 -124 -127 -128 -129 -130 -131 -132 -133 -134 -135 -136 -141 -143 -144 -145 -148 0 
-64 71 80 92 125 -122 -123 -124 -127 -128 -129 -130 -131 -132 -133 -134 -135 -136 -141 -143 -144 -145 -148 0 
-15 16 27 130 -122 -123 -124 -125 -127 -128 -129 -131 -132 -133 -134 -135 -136 -141 -143 -144 -145 -148 0 
-48 14 20 38 83 -65 125 -122 -123 -124 -127 -128 -129 -130 -131 -132 -133 -134 -135 -136 -141 -143 -144 -145 -148 0 
-66 55 90 130 -122 -123 -124 -125 -127 -128 -129 -131 -132 -133 -134 -135 -136 -141 -143 -144 -145 -148 0 
-67 18 130 -122 -123 -124 -125 -127 -128 -129 -131 -132 -133 -134 -135 -136 -141 -143 -144 -145 -148 0 
-27 15 16 -68 112 -10 125 -122 -123 -124 -127 -128 -129 -130 -131 -132 -133 -134 -135 -136 -141 -143 -144 -145 -148 0 
-69 36 60 85 102 120 -70 -12 34 54 125 -122 -123 -124 -127 -128 -129 -130 -131 -132 -133 -134 -135 -136 -141 -143 -144 -145 -148 0 
-12 34 54 133 -122 -123 -124 -125 -127 -128 -129 -130 -131 -132 -134 -135 -136 -141 -143 -144 -145 -148 0 
-39 -12 34 54 125 -122 -123 -124 -127 -128 -129 -130 -131 -132 -133 -134 -135 -136 -141 -143 -144 -145 -148 0 
-71 64 80 92 -12 34 54 143 -122 -123 -124 -125 -127 -128 -129 -130 -131 -132 -133 -134 -135 -136 -141 -144 -145 -148 0 
-72 -12 34 54 122 -123 -124 -125 -127 -128 -129 -130 -131 -132 -133 -134 -135 -136 -141 -143 -144 -145 -148 0 
-12 34 54 144 -122 -123 -124 -125 -127 -128 -129 -130 -131 -132 -133 -134 -135 -136 -141 -143 -145 -148 0 
-27 15 16 -12 34 54 -73 26 125 -122 -123 -124 -127 -128 -129 -130 -131 -132 -133 -134 -135 -136 -141 -143 -144 -145 -148 0 
-74 -27 15 16 -75 125 -122 -123 -124 -127 -128 -129 -130 -131 -132 -133 -134 -135 -136 -141 -143 -144 -145 -148 0 
-63 2 3 5 21 43 79 82 91 97 98 105 115 -52 125 -122 -123 -124 -127 -128 -129 -130 -131 -132 -133 -134 -135 -136 -141 -143 -144 -145 -148 0 
-27 15 16 125 -122 -123 -124 -127 -128 -129 -130 -131 -132 -133 -134 -135 -136 -141 -143 -144 -145 -148 0 
-76 -12 34 54 125 -122 -123 -124 -127 -128 -129 -130 -131 -132 -133 -134 -135 -136 -141 -143 -144 -145 -148 0 
-77 130 -122 -123 -124 -125 -127 -128 -129 -131 -132 -133 -134 -135 -136 -141 -143 -144 -145 -148 0 
-78 -10 125 -122 -123 -124 -127 -128 -129 -130 -131 -132 -133 -134 -135 -136 -141 -143 -144 -145 -148 0 
-79 2 3 5 21 43 63 82 91 97 98 105 115 125 -122 -123 -124 -127 -128 -129 -130 -131 -132 -133 -134 -135 -136 -141 -143 -144 -145 -148 0 
-80 64 71 92 125 -122 -123 -124 -127 -128 -129 -130 -131 -132 -133 -134 -135 -136 -141 -143 -144 -145 -148 0 
-81 -10 125 -122 -123 -124 -127 -128 -129 -130 -131 -132 -133 -134 -135 -136 -141 -143 -144 -145 -148 0 
-82 2 3 5 21 43 63 79 91 97 98 105 115 130 -122 -123 -124 -125 -127 -128 -129 -131 -132 -133 -134 -135 -136 -141 -143 -144 -145 -148 0 
-83 14 20 38 48 125 -122 -123 -124 -127 -128 -129 -130 -131 -132 -133 -134 -135 -136 -141 -143 -144 -145 -148 0 
-84 116 125 -122 -123 -124 -127 -128 -129 -130 -131 -132 -133 -134 -135 -136 -141 -143 -144 -145 -148 0 
-85 36 60 69 102 120 -12 34 54 122 -123 -124 -125 -127 -128 -129 -130 -131 -132 -133 -134 -135 -136 -141 -143 -144 -145 -148 0 
-86 42 50 95 119 -12 34 54 122 -123 -124 -125 -127 -128 -129 -130 -131 -132 -133 -134 -135 -136 -141 -143 -144 -145 -148 0 
-87 17 45 61 104 -88 37 -12 34 54 124 -122 -123 -125 -127 -128 -129 -130 -131 -132 -133 -134 -135 -136 -141 -143 -144 -145 -148 0 
-89 125 -122 -123 -124 -127 -128 -129 -130 -131 -132 -133 -134 -135 -136 -141 -143 -144 -145 -148 0 
-19 -9 31 51 111 125 -122 -123 -124 -127 -128 -129 -130 -131 -132 -133 -134 -135 -136 -141 -143 -144 -145 -148 0 
-53 145 -122 -123 -124 -125 -127 -128 -129 -130 -131 -132 -133 -134 -135 -136 -141 -143 -144 -148 0 
-90 55 66 125 -122 -123 -124 -127 -128 -129 -130 -131 -132 -133 -134 -135 -136 -141 -143 -144 -145 -148 0 
-91 2 3 5 21 43 63 79 82 97 98 105 115 125 -122 -123 -124 -127 -128 -129 -130 -131 -132 -133 -134 -135 -136 -141 -143 -144 -145 -148 0 
-92 64 71 80 -27 15 16 125 -122 -123 -124 -127 -128 -129 -130 -131 -132 -133 -134 -135 -136 -141 -143 -144 -145 -148 0 
-93 146 -126 -137 -138 -139 -142 0 
-94 147 -122 -123 -124 -125 -127 -128 -129 -130 -131 -132 -133 -134 -135 -136 -141 -143 -144 -145 -148 0 
-95 42 50 86 119 147 -122 -123 -124 -125 -127 -128 -129 -130 -131 -132 -133 -134 -135 -136 -141 -143 -144 -145 -148 0 
-96 -97 2 3 5 21 43 63 79 82 91 98 105 115 125 -122 -123 -124 -127 -128 -129 -130 -131 -132 -133 -134 -135 -136 -141 -143 -144 -145 -148 0 
-98 2 3 5 21 43 63 79 82 91 97 105 115 148 -122 -123 -124 -125 -127 -128 -129 -130 -131 -132 -133 -134 -135 -136 -141 -143 -144 -145 0 
-99 100 148 -122 -123 -124 -125 -127 -128 -129 -130 -131 -132 -133 -134 -135 -136 -141 -143 -144 -145 0 
-100 99 148 -122 -123 -124 -125 -127 -128 -129 -130 -131 -132 -133 -134 -135 -136 -141 -143 -144 -145 0 
-101 140 -122 -123 -124 -125 -127 -128 -129 -130 -131 -132 -133 -134 -135 -136 -141 -143 -144 -145 -148 0 
-102 36 60 69 85 120 -103 125 -122 -123 -124 -127 -128 -129 -130 -131 -132 -133 -134 -135 -136 -141 -143 -144 -145 -148 0 
-104 17 45 61 87 -105 2 3 5 21 43 63 79 82 91 97 98 115 131 -122 -123 -124 -125 -127 -128 -129 -130 -132 -133 -134 -135 -136 -141 -143 -144 -145 -148 0 
-106 62 -107 131 -122 -123 -124 -125 -127 -128 -129 -130 -132 -133 -134 -135 -136 -141 -143 -144 -145 -148 0 
-105 2 3 5 21 43 63 79 82 91 97 98 115 -10 131 -122 -123 -124 -125 -127 -128 -129 -130 -132 -133 -134 -135 -136 -141 -143 -144 -145 -148 0 
-107 -10 131 -122 -123 -124 -125 -127 -128 -129 -130 -132 -133 -134 -135 -136 -141 -143 -144 -145 -148 0 
-10 131 -122 -123 -124 -125 -127 -128 -129 -130 -132 -133 -134 -135 -136 -141 -143 -144 -145 -148 0 
-34 12 54 -108 125 -122 -123 -124 -127 -128 -129 -130 -131 -132 -133 -134 -135 -136 -141 -143 -144 -145 -148 0 
-109 135 -122 -123 -124 -125 -127 -128 -129 -130 -131 -132 -133 -134 -136 -141 -143 -144 -145 -148 0 
-110 -12 34 54 -73 26 125 -122 -123 -124 -127 -128 -129 -130 -131 -132 -133 -134 -135 -136 -141 -143 -144 -145 -148 0 
-33 -34 12 54 -11 135 -122 -123 -124 -125 -127 -128 -129 -130 -131 -132 -133 -134 -136 -141 -143 -144 -145 -148 0 
-19 -34 12 54 125 -122 -123 -124 -127 -128 -129 -130 -131 -132 -133 -134 -135 -136 -141 -143 -144 -145 -148 0 
-27 15 16 -12 34 54 125 -122 -123 -124 -127 -128 -129 -130 -131 -132 -133 -134 -135 -136 -141 -143 -144 -145 -148 0 
-68 112 -111 9 31 51 125 -122 -123 -124 -127 -128 -129 -130 -131 -132 -133 -134 -135 -136 -141 -143 -144 -145 -148 0 
-112 68 -12 34 54 -113 13 125 -122 -123 -124 -127 -128 -129 -130 -131 -132 -133 -134 -135 -136 -141 -143 -144 -145 -148 0 
-114 128 -122 -123 -124 -125 -127 -129 -130 -131 -132 -133 -134 -135 -136 -141 -143 -144 -145 -148 0 
-66 55 90 -15 16 27 130 -122 -123 -124 -125 -127 -128 -129 -131 -132 -133 -134 -135 -136 -141 -143 -144 -145 -148 0 
-115 2 3 5 21 43 63 79 82 91 97 98 105 128 -122 -123 -124 -125 -127 -129 -130 -131 -132 -133 -134 -135 -136 -141 -143 -144 -145 -148 0 
-116 84 -117 -54 12 34 131 -122 -123 -124 -125 -127 -128 -129 -130 -132 -133 -134 -135 -136 -141 -143 -144 -145 -148 0 
-25 125 -122 -123 -124 -127 -128 -129 -130 -131 -132 -133 -134 -135 -136 -141 -143 -144 -145 -148 0 
-118 125 -122 -123 -124 -127 -128 -129 -130 -131 -132 -133 -134 -135 -136 -141 -143 -144 -145 -148 0 
-14 20 38 48 83 130 -122 -123 -124 -125 -127 -128 -129 -131 -132 -133 -134 -135 -136 -141 -143 -144 -145 -148 0 
-119 42 50 86 95 130 -122 -123 -124 -125 -127 -128 -129 -131 -132 -133 -134 -135 -136 -141 -143 -144 -145 -148 0 
-120 36 60 69 85 102 -54 12 34 132 -122 -123 -124 -125 -127 -128 -129 -130 -131 -133 -134 -135 -136 -141 -143 -144 -145 -148 0 
-121 125 -122 -123 -124 -127 -128 -129 -130 -131 -132 -133 -134 -135 -136 -141 -143 -144 -145 -148 0 
-12 34 54 -35 141 -122 -123 -124 -125 -127 -128 -129 -130 -131 -132 -133 -134 -135 -136 -143 -144 -145 -148 0 
103 115 -123 0 
22 -65 -95 0 
1 68 -137 0 
63 -65 82 0 
-35 111 116 0 
16 -24 42 0 
56 -84 146 0 
55 101 -115 0 
-55 109 127 0 
46 -73 109 0 
-5 -16 99 0 
11 16 125 0 
-28 -58 -117 0 
-47 112 -118 0 
47 78 -138 0 
-19 112 -141 0 
8 24 -115 0 
35 66 89 0 
56 79 -128 0 
36 -116 -144 0 
15 42 63 0 
-90 106 117 0 
14 40 99 0 
-82 90 97 0 
-38 -132 141 0 
-38 40 -76 0 
-26 -124 -142 0 
-3 -5 55 0 
-94 106 -132 0 
53 63 135 0 
36 54 123 0 
33 76 -100 0 
28 47 138 0 
22 38 108 0 
-28 -30 57 0 
-36 119 -129 0 
-24 -54 101 0 
19 -32 135 0 
29 -55 -96 0 
14 125 145 0 
-39 -52 -74 0 
-22 106 136 0 
-88 -126 131 0 
5 39 48 0 
2 60 -82 0 
110 -127 143 0 
18 -44 54 0 
12 -12 -51 0 
40 80 -110 0 
-75 -78 96 0 
-52 74 -95 0 
-18 103 104 0 
-33 -95 -129 0 
19 -119 -121 0 
-69 75 146 0 
28 80 -114 0 
26 -35 122 0 
-30 39 -74 0 
-19 33 -113 0 
14 129 -144 0 
3 -12 -72 0 
-2 89 -122 0 
-16 49 -71 0 
-19 76 87 0 
-13 37 148 0 
26 -69 -103 0 
42 63 91 0 
8 54 79 0 
101 -116 120 0 
21 -60 116 0 
-17 -64 95 0 
22 60 -131 0 
-24 -73 146 0 
-37 51 -98 0 
-7 13 -125 0 
32 79 103 0 
24 140 143 0 
31 -110 115 0 
-23 80 101 0 
57 71 94 0 
-24 75 -104 0 
21 56 89 0 
94 95 -129 0 
-79 -106 -118 0 
70 74 81 0 
20 33 88 0 
-74 86 133 0 
10 55 -67 0 
8 11 -106 0 
-124 -126 -136 0 
54 69 134 0 
-92 -114 128 0 
-6 51 -86 0 
-10 34 112 0 
-4 -56 105 0 
23 -112 125 0 
-13 104 129 0 
-80 94 -115 0 
25 -64 72 0 
31 58 62 0 
16 75 -133 0 
28 60 -97 0 
-13 71 113 0 
35 -56 -93 0 
44 -128 147 0 
-3 -100 -114 0 
19 68 146 0 
6 -74 -94 0 
23 -104 -121 0 
-8 61 98 0 
-96 139 140 0 
-16 61 -70 0 
-32 -109 148 0 
54 -100 -127 0 
-1 18 74 0 
-57 -69 118 0 
18 110 -117 0 
19 74 78 0 
31 47 -55 0 
-62 65 118 0 
34 90 -105 0 
-84 131 139 0 
-46 -54 -106 0 
-5 17 106 0 
98 -125 -145 0 
-57 -62 -113 0 
-24 39 134 0 
-10 32 64 0 
18 34 130 0 
2 -144 147 0 
35 -74 -77 0 
-45 -86 -97 0 
11 -66 -145 0 
-36 97 131 0 
-14 -48 -118 0 
-37 120 -128 0 
19 61 129 0 
-43 -67 105 0 
20 38 -129 0 
-63 -114 -147 0 
22 -36 118 0 
-4 16 133 0 
-26 -57 -99 0 
14 28 -85 0 
19 95 122 0 
19 81 -86 0 
11 -87 -134 0 
5 30 47 0 
